words_hard_train/2466.qaiger
aag 132 24 0 1 108
2
4
12
20
22
26
28
40
42
54
56
68
70
82
84
96
98
120
128
142
158
174
190
206
264
6 3 4
8 2 5
10 7 9
14 10 13
16 11 12
18 15 17
24 20 22
30 27 29
32 26 28
34 31 33
36 24 34
38 37 33
44 41 43
46 40 42
48 45 47
50 39 48
52 51 47
58 55 57
60 54 56
62 59 61
64 53 62
66 65 61
72 69 71
74 68 70
76 73 75
78 67 76
80 79 75
86 83 85
88 82 84
90 87 89
92 81 90
94 93 89
100 97 99
102 96 98
104 101 103
106 95 104
108 107 103
110 19 109
112 18 108
114 111 113
116 21 23
118 117 25
122 118 120
124 25 35
126 125 37
130 127 129
132 122 131
134 126 128
136 133 135
138 38 49
140 139 51
144 141 143
146 140 142
148 145 147
150 137 148
152 151 147
154 52 63
156 155 65
160 157 159
162 156 158
164 161 163
166 153 164
168 167 163
170 66 77
172 171 79
176 173 175
178 172 174
180 177 179
182 169 180
184 183 179
186 80 91
188 187 93
192 189 191
194 188 190
196 193 195
198 185 196
200 199 195
202 94 105
204 203 107
208 205 207
210 204 206
212 209 211
214 201 212
216 215 211
218 115 217
220 114 216
222 219 221
224 131 135
226 225 118
228 152 165
230 227 229
232 225 121
234 233 123
236 136 149
238 237 151
240 235 239
242 240 167
244 230 242
246 244 183
248 168 181
250 246 249
252 184 197
254 253 199
256 250 254
258 200 213
260 259 215
262 256 261
264 223 262
i0 1 x1[7]
i1 2 y2[7]
i2 2 y1[7]
i3 2 y2[0]
i4 2 y1[0]
i5 2 y2[1]
i6 2 y1[1]
i7 2 y2[2]
i8 2 y1[2]
i9 2 y2[3]
i10 2 y1[3]
i11 2 y2[4]
i12 2 y1[4]
i13 2 y2[5]
i14 2 y1[5]
i15 2 y2[6]
i16 2 y1[6]
i17 1 x1[0]
i18 1 x1[1]
i19 1 x1[2]
i20 1 x1[3]
i21 1 x1[4]
i22 1 x1[5]
i23 1 x1[6]
o0 bool[0]
c
simplified
  ==
    add
      1 x1
      add
        2 y2
        2 y1
    reverse
      28
