words_hard_train/2466.qaiger.qdimacs
p cnf 132 325
a 64 1 71 103 79 87 60 95 0
e 2 3 4 5 6 7 8 9 10 11 12 13 14 15 16 17 18 19 20 21 22 23 24 25 26 27 28 29 30 31 32 33 34 35 36 37 38 39 40 41 42 43 44 45 46 47 48 49 50 51 52 53 54 55 56 57 58 59 61 62 63 65 66 67 68 69 70 72 73 74 75 76 77 78 80 81 82 83 84 85 86 88 89 90 91 92 93 94 96 97 98 99 100 101 102 104 105 106 107 108 109 110 111 112 113 114 115 116 117 118 119 120 121 122 123 124 125 126 127 128 129 130 131 132 0
1 -2 3 0
-1 -3 0
2 -3 0
-1 2 4 0
1 -4 0
-2 -4 0
3 4 5 0
-3 -5 0
-4 -5 0
-5 6 7 0
5 -7 0
-6 -7 0
5 -6 8 0
-5 -8 0
6 -8 0
7 8 9 0
-7 -9 0
-8 -9 0
-10 -11 12 0
10 -12 0
11 -12 0
13 14 15 0
-13 -15 0
-14 -15 0
-13 -14 16 0
13 -16 0
14 -16 0
15 16 17 0
-15 -17 0
-16 -17 0
-12 -17 18 0
12 -18 0
17 -18 0
18 16 19 0
-18 -19 0
-16 -19 0
20 21 22 0
-20 -22 0
-21 -22 0
-20 -21 23 0
20 -23 0
21 -23 0
22 23 24 0
-22 -24 0
-23 -24 0
19 -24 25 0
-19 -25 0
24 -25 0
25 23 26 0
-25 -26 0
-23 -26 0
27 28 29 0
-27 -29 0
-28 -29 0
-27 -28 30 0
27 -30 0
28 -30 0
29 30 31 0
-29 -31 0
-30 -31 0
26 -31 32 0
-26 -32 0
31 -32 0
32 30 33 0
-32 -33 0
-30 -33 0
34 35 36 0
-34 -36 0
-35 -36 0
-34 -35 37 0
34 -37 0
35 -37 0
36 37 38 0
-36 -38 0
-37 -38 0
33 -38 39 0
-33 -39 0
38 -39 0
39 37 40 0
-39 -40 0
-37 -40 0
41 42 43 0
-41 -43 0
-42 -43 0
-41 -42 44 0
41 -44 0
42 -44 0
43 44 45 0
-43 -45 0
-44 -45 0
40 -45 46 0
-40 -46 0
45 -46 0
46 44 47 0
-46 -47 0
-44 -47 0
48 49 50 0
-48 -50 0
-49 -50 0
-48 -49 51 0
48 -51 0
49 -51 0
50 51 52 0
-50 -52 0
-51 -52 0
47 -52 53 0
-47 -53 0
52 -53 0
53 51 54 0
-53 -54 0
-51 -54 0
9 54 55 0
-9 -55 0
-54 -55 0
-9 -54 56 0
9 -56 0
54 -56 0
55 56 57 0
-55 -57 0
-56 -57 0
10 11 58 0
-10 -58 0
-11 -58 0
58 12 59 0
-58 -59 0
-12 -59 0
-59 -60 61 0
59 -61 0
60 -61 0
12 17 62 0
-12 -62 0
-17 -62 0
62 18 63 0
-62 -63 0
-18 -63 0
63 64 65 0
-63 -65 0
-64 -65 0
-61 65 66 0
61 -66 0
-65 -66 0
-63 -64 67 0
63 -67 0
64 -67 0
66 67 68 0
-66 -68 0
-67 -68 0
-19 24 69 0
19 -69 0
-24 -69 0
69 25 70 0
-69 -70 0
-25 -70 0
70 71 72 0
-70 -72 0
-71 -72 0
-70 -71 73 0
70 -73 0
71 -73 0
72 73 74 0
-72 -74 0
-73 -74 0
68 -74 75 0
-68 -75 0
74 -75 0
75 73 76 0
-75 -76 0
-73 -76 0
-26 31 77 0
26 -77 0
-31 -77 0
77 32 78 0
-77 -78 0
-32 -78 0
78 79 80 0
-78 -80 0
-79 -80 0
-78 -79 81 0
78 -81 0
79 -81 0
80 81 82 0
-80 -82 0
-81 -82 0
76 -82 83 0
-76 -83 0
82 -83 0
83 81 84 0
-83 -84 0
-81 -84 0
-33 38 85 0
33 -85 0
-38 -85 0
85 39 86 0
-85 -86 0
-39 -86 0
86 87 88 0
-86 -88 0
-87 -88 0
-86 -87 89 0
86 -89 0
87 -89 0
88 89 90 0
-88 -90 0
-89 -90 0
84 -90 91 0
-84 -91 0
90 -91 0
91 89 92 0
-91 -92 0
-89 -92 0
-40 45 93 0
40 -93 0
-45 -93 0
93 46 94 0
-93 -94 0
-46 -94 0
94 95 96 0
-94 -96 0
-95 -96 0
-94 -95 97 0
94 -97 0
95 -97 0
96 97 98 0
-96 -98 0
-97 -98 0
92 -98 99 0
-92 -99 0
98 -99 0
99 97 100 0
-99 -100 0
-97 -100 0
-47 52 101 0
47 -101 0
-52 -101 0
101 53 102 0
-101 -102 0
-53 -102 0
102 103 104 0
-102 -104 0
-103 -104 0
-102 -103 105 0
102 -105 0
103 -105 0
104 105 106 0
-104 -106 0
-105 -106 0
100 -106 107 0
-100 -107 0
106 -107 0
107 105 108 0
-107 -108 0
-105 -108 0
57 108 109 0
-57 -109 0
-108 -109 0
-57 -108 110 0
57 -110 0
108 -110 0
109 110 111 0
-109 -111 0
-110 -111 0
65 67 112 0
-65 -112 0
-67 -112 0
112 -59 113 0
-112 -113 0
59 -113 0
-76 82 114 0
76 -114 0
-82 -114 0
113 114 115 0
-113 -115 0
-114 -115 0
112 60 116 0
-112 -116 0
-60 -116 0
116 61 117 0
-116 -117 0
-61 -117 0
-68 74 118 0
68 -118 0
-74 -118 0
118 75 119 0
-118 -119 0
-75 -119 0
117 119 120 0
-117 -120 0
-119 -120 0
-120 83 121 0
120 -121 0
-83 -121 0
-115 -121 122 0
115 -122 0
121 -122 0
-122 91 123 0
122 -123 0
-91 -123 0
-84 90 124 0
84 -124 0
-90 -124 0
-123 124 125 0
123 -125 0
-124 -125 0
-92 98 126 0
92 -126 0
-98 -126 0
126 99 127 0
-126 -127 0
-99 -127 0
-125 -127 128 0
125 -128 0
127 -128 0
-100 106 129 0
100 -129 0
-106 -129 0
129 107 130 0
-129 -130 0
-107 -130 0
-128 130 131 0
128 -131 0
-130 -131 0
111 -131 132 0
-111 -132 0
131 -132 0
132 0
